NAME: random_40_4
TYPE: TSP
COMMENT: random_40_4
DIMENSION: 40
EDGE_WEIGHT_TYPE: EUC_2D
NODE_COORD_SECTION
1 401 345
2 378 109
3 388 477
4 437 53
5 376 151
6 282 438
7 55 169
8 306 354
9 484 295
10 372 368
11 418 91
12 355 99
13 97 139
14 76 332
15 478 278
16 469 401
17 172 475
18 470 15
19 474 117
20 239 173
21 492 121
22 159 407
23 230 192
24 245 487
25 124 445
26 435 97
27 225 209
28 14 458
29 364 309
30 257 338
31 63 401
32 99 181
33 254 445
34 385 177
35 131 400
36 127 73
37 41 79
38 105 354
39 497 441
40 262 2
